
Gurobi 11.0.3 (linux64) logging started Wed Apr 15 15:08:09 2026

Set parameter LogFile to value "tree/results/dmtl/dmtl_depth-3_run-2/Full MIP/LogFile_FullModel.txt"
Gurobi Optimizer version 11.0.3 build v11.0.3rc0 (linux64 - "CentOS Linux 7 (Core)")

CPU model: Intel(R) Xeon(R) Platinum 8260 CPU @ 2.40GHz, instruction set [SSE2|AVX|AVX2|AVX512]
Thread count: 96 physical cores, 192 logical processors, using up to 32 threads

Optimize a model with 22497 rows, 15802 columns and 706519 nonzeros
Model fingerprint: 0x3e7834f0
Model has 2144 general constraints
Variable types: 9084 continuous, 6718 integer (6718 binary)
Coefficient statistics:
  Matrix range     [4e-03, 1e+04]
  Objective range  [4e-03, 1e+04]
  Bounds range     [1e+00, 8e+02]
  RHS range        [1e-04, 2e+03]

User MIP start produced solution with objective 0.802239 (0.16s)
Loaded user MIP start with objective 0.802239

Presolve added 2136 rows and 6431 columns
Presolve time: 0.67s
Presolved: 24633 rows, 22233 columns, 719356 nonzeros
Presolved model has 6432 SOS constraint(s)
Variable types: 9083 continuous, 13150 integer (13150 binary)

Deterministic concurrent LP optimizer: primal simplex, dual simplex, and barrier
Showing barrier log only...

Root relaxation presolved: 24633 rows, 22233 columns, 719356 nonzeros

Root barrier log...

Ordering time: 0.07s

Barrier statistics:
 Dense cols : 245
 AA' NZ     : 7.143e+05
 Factor NZ  : 2.406e+06 (roughly 40 MB of memory)
 Factor Ops : 2.674e+08 (less than 1 second per iteration)
 Threads    : 30

                  Objective                Residual
Iter       Primal          Dual         Primal    Dual     Compl     Time
   0   4.81338982e+02  4.17268929e+08  3.40e+04 5.97e-02  8.00e+05     2s
   1   4.81429764e+01  6.41893725e+08  1.44e+04 8.14e+01  3.10e+05     2s
   2   8.93960421e+00  6.40770146e+08  1.63e+03 1.70e+01  4.63e+04     2s
   3   1.62419436e+00  2.49688037e+08  1.98e+02 1.65e+00  7.24e+03     2s
   4   6.23378601e-01  3.58936628e+07  2.30e+01 1.66e-01  8.59e+02     2s
   5   4.74739908e-01  4.97882933e+06  1.61e+00 1.91e-02  1.08e+02     2s
   6   4.59712811e-01  5.27155014e+05  7.41e-02 1.91e-03  1.10e+01     2s
   7   4.59438243e-01  5.34654334e+04  7.34e-03 1.93e-04  1.11e+00     2s
   8   4.71484616e-01  6.03686859e+03  7.28e-04 2.18e-05  1.25e-01     2s
   9   6.12605279e-01  8.22087596e+02  7.21e-05 2.92e-06  1.70e-02     2s
  10   9.54131429e-01  1.16836095e+02  7.15e-06 3.57e-07  2.40e-03     2s
  11   9.95413143e-01  1.26936157e+01  7.08e-07 3.57e-08  2.42e-04     2s
  12   9.99541314e-01  2.16936384e+00  7.08e-08 3.57e-09  2.42e-05     2s
  13   9.99954131e-01  1.11804212e+00  7.02e-09 3.58e-10  2.44e-06     3s
  14   9.99995413e-01  1.01180421e+00  7.02e-10 3.58e-11  2.44e-07     3s
  15   9.99999541e-01  1.00119158e+00  6.96e-11 3.58e-12  2.47e-08     3s
  16   9.99999954e-01  1.00011916e+00  7.30e-12 3.58e-13  2.47e-09     3s
  17   9.99999995e-01  1.00001192e+00  9.38e-13 3.58e-14  2.47e-10     3s
  18   1.00000000e+00  1.00000119e+00  4.55e-13 3.58e-15  2.47e-11     3s
  19   1.00000000e+00  1.00000012e+00  4.55e-13 3.58e-16  2.47e-12     3s
  20   1.00000000e+00  1.00000001e+00  4.55e-13 3.58e-17  2.47e-13     3s

Barrier solved model in 20 iterations and 3.35 seconds (2.93 work units)
Optimal objective 1.00000000e+00

Concurrent spin time: 0.02s

Solved with barrier

Root relaxation: objective 1.000000e+00, 8534 iterations, 2.85 seconds (2.52 work units)

    Nodes    |    Current Node    |     Objective Bounds      |     Work
 Expl Unexpl |  Obj  Depth IntInf | Incumbent    BestBd   Gap | It/Node Time

     0     0    1.00000    0  541    0.80224    1.00000  24.7%     -    4s
     0     2    1.00000    0  541    0.80224    1.00000  24.7%     -   14s
     3     8    1.00000    2 1145    0.80224    1.00000  24.7%   622   18s
     7    16    1.00000    3 1138    0.80224    1.00000  24.7%  1127   27s
    15    32    1.00000    4 1289    0.80224    1.00000  24.7%  1397   48s
    31    64    1.00000    5 1241    0.80224    1.00000  24.7%  1169   56s
    63    96    1.00000    6  408    0.80224    1.00000  24.7%   822  171s
    95   128    1.00000    6 1240    0.80224    1.00000  24.7%  1558  188s
   127   160    1.00000    7  407    0.80224    1.00000  24.7%  1264  193s
   159   192    1.00000    7  329    0.80224    1.00000  24.7%  1045  225s
   255   288    1.00000    9  405    0.80224    1.00000  24.7%   715  385s
   287   578    1.00000    9  386    0.80224    1.00000  24.7%   639  413s
   577  1024    1.00000   17  395    0.80224    1.00000  24.7%   648 1006s
  1023  2849    1.00000   38  376    0.80224    1.00000  24.7%   645 3318s
  2848  6171    1.00000  123  432    0.80224    1.00000  24.7%   742 3600s

Cutting planes:
  Lazy constraints: 2

Explored 6170 nodes (4643721 simplex iterations) in 3600.56 seconds (8328.63 work units)
Thread count was 32 (of 192 available processors)

Solution count 1: 0.802239 

Time limit reached
Best objective 8.022388059701e-01, best bound 1.000000000000e+00, gap 24.6512%

User-callback calls 2740904, time in user-callback 16.63 sec
